c CNF file corresponding to a (partial) station packing problem.
p cnf 6670 229
1 2 3 4 5 6 7 8 9 10 11 12 13 14 0
-1 -2 0
-1 -3 0
-1 -4 0
-1 -5 0
-1 -6 0
-1 -7 0
-1 -8 0
-1 -9 0
-1 -10 0
-1 -11 0
-1 -12 0
-1 -13 0
-1 -14 0
-2 -3 0
-2 -4 0
-2 -5 0
-2 -6 0
-2 -7 0
-2 -8 0
-2 -9 0
-2 -10 0
-2 -11 0
-2 -12 0
-2 -13 0
-2 -14 0
-3 -4 0
-3 -5 0
-3 -6 0
-3 -7 0
-3 -8 0
-3 -9 0
-3 -10 0
-3 -11 0
-3 -12 0
-3 -13 0
-3 -14 0
-4 -5 0
-4 -6 0
-4 -7 0
-4 -8 0
-4 -9 0
-4 -10 0
-4 -11 0
-4 -12 0
-4 -13 0
-4 -14 0
-5 -6 0
-5 -7 0
-5 -8 0
-5 -9 0
-5 -10 0
-5 -11 0
-5 -12 0
-5 -13 0
-5 -14 0
-6 -7 0
-6 -8 0
-6 -9 0
-6 -10 0
-6 -11 0
-6 -12 0
-6 -13 0
-6 -14 0
-7 -8 0
-7 -9 0
-7 -10 0
-7 -11 0
-7 -12 0
-7 -13 0
-7 -14 0
-8 -9 0
-8 -10 0
-8 -11 0
-8 -12 0
-8 -13 0
-8 -14 0
-9 -10 0
-9 -11 0
-9 -12 0
-9 -13 0
-9 -14 0
-10 -11 0
-10 -12 0
-10 -13 0
-10 -14 0
-11 -12 0
-11 -13 0
-11 -14 0
-12 -13 0
-12 -14 0
-13 -14 0
6654 6655 6656 6657 6658 6659 6660 6661 6662 6663 6664 6665 6666 6667 6668 6669 6670 0
-6654 -6655 0
-6654 -6656 0
-6654 -6657 0
-6654 -6658 0
-6654 -6659 0
-6654 -6660 0
-6654 -6661 0
-6654 -6662 0
-6654 -6663 0
-6654 -6664 0
-6654 -6665 0
-6654 -6666 0
-6654 -6667 0
-6654 -6668 0
-6654 -6669 0
-6654 -6670 0
-6655 -6656 0
-6655 -6657 0
-6655 -6658 0
-6655 -6659 0
-6655 -6660 0
-6655 -6661 0
-6655 -6662 0
-6655 -6663 0
-6655 -6664 0
-6655 -6665 0
-6655 -6666 0
-6655 -6667 0
-6655 -6668 0
-6655 -6669 0
-6655 -6670 0
-6656 -6657 0
-6656 -6658 0
-6656 -6659 0
-6656 -6660 0
-6656 -6661 0
-6656 -6662 0
-6656 -6663 0
-6656 -6664 0
-6656 -6665 0
-6656 -6666 0
-6656 -6667 0
-6656 -6668 0
-6656 -6669 0
-6656 -6670 0
-6657 -6658 0
-6657 -6659 0
-6657 -6660 0
-6657 -6661 0
-6657 -6662 0
-6657 -6663 0
-6657 -6664 0
-6657 -6665 0
-6657 -6666 0
-6657 -6667 0
-6657 -6668 0
-6657 -6669 0
-6657 -6670 0
-6658 -6659 0
-6658 -6660 0
-6658 -6661 0
-6658 -6662 0
-6658 -6663 0
-6658 -6664 0
-6658 -6665 0
-6658 -6666 0
-6658 -6667 0
-6658 -6668 0
-6658 -6669 0
-6658 -6670 0
-6659 -6660 0
-6659 -6661 0
-6659 -6662 0
-6659 -6663 0
-6659 -6664 0
-6659 -6665 0
-6659 -6666 0
-6659 -6667 0
-6659 -6668 0
-6659 -6669 0
-6659 -6670 0
-6660 -6661 0
-6660 -6662 0
-6660 -6663 0
-6660 -6664 0
-6660 -6665 0
-6660 -6666 0
-6660 -6667 0
-6660 -6668 0
-6660 -6669 0
-6660 -6670 0
-6661 -6662 0
-6661 -6663 0
-6661 -6664 0
-6661 -6665 0
-6661 -6666 0
-6661 -6667 0
-6661 -6668 0
-6661 -6669 0
-6661 -6670 0
-6662 -6663 0
-6662 -6664 0
-6662 -6665 0
-6662 -6666 0
-6662 -6667 0
-6662 -6668 0
-6662 -6669 0
-6662 -6670 0
-6663 -6664 0
-6663 -6665 0
-6663 -6666 0
-6663 -6667 0
-6663 -6668 0
-6663 -6669 0
-6663 -6670 0
-6664 -6665 0
-6664 -6666 0
-6664 -6667 0
-6664 -6668 0
-6664 -6669 0
-6664 -6670 0
-6665 -6666 0
-6665 -6667 0
-6665 -6668 0
-6665 -6669 0
-6665 -6670 0
-6666 -6667 0
-6666 -6668 0
-6666 -6669 0
-6666 -6670 0
-6667 -6668 0
-6667 -6669 0
-6667 -6670 0
-6668 -6669 0
-6668 -6670 0
-6669 -6670 0
